182 5
10 10 10 10 10 

0 0 0 0 0 0 1 2 
0 0 0 0 0 0 7 3 5 6 7 8 11 12 
1 0 1 0 0 0 2 10 4 
8 0 3 0 0 0 1 9 
3 0 2 0 0 0 1 10 
4 0 1 0 0 0 1 9 
2 0 2 0 0 0 1 9 
5 0 3 0 0 0 1 9 
7 0 2 0 0 0 1 13 
4 0 5 0 0 0 1 13 
7 0 3 0 0 0 1 13 
8 0 3 0 0 0 1 13 
0 0 0 0 0 0 2 14 26 
0 0 0 0 0 0 5 15 16 17 18 19 
8 0 0 1 0 0 3 23 21 20 
8 0 0 3 0 0 3 24 23 22 
10 0 0 4 0 0 2 23 20 
7 0 0 4 0 0 2 23 22 
7 0 0 2 0 0 2 20 81 
10 0 0 3 0 0 1 22 
6 0 0 2 0 0 1 22 
2 0 0 2 0 0 1 25 
5 0 0 2 0 0 1 25 
10 0 0 2 0 0 1 25 
0 0 0 0 0 0 2 48 60 
0 0 0 0 0 0 9 27 28 29 30 31 33 34 36 37 
7 0 0 1 1 0 2 40 32 
10 0 0 2 2 0 2 40 32 
4 0 0 3 5 0 5 46 45 41 40 38 
4 0 0 1 1 0 3 40 35 55 
6 0 0 5 1 0 1 32 
10 0 0 1 1 0 4 46 45 41 38 
5 0 0 6 3 0 4 46 45 41 38 
6 0 0 2 2 0 4 46 41 40 38 
6 0 0 3 4 0 4 46 45 43 38 
3 0 0 3 4 0 4 46 45 43 38 
6 0 0 3 2 0 3 45 43 39 
10 0 0 4 3 0 1 39 
3 0 0 2 1 0 2 44 42 
9 0 0 2 2 0 2 43 42 
6 0 0 2 4 0 1 43 
7 0 0 2 2 0 1 47 
1 0 0 3 3 0 1 47 
3 0 0 3 3 0 1 47 
2 0 0 1 3 0 1 47 
10 0 0 1 3 0 1 47 
0 0 0 0 0 0 1 72 
0 0 0 0 0 0 4 49 51 52 58 
2 0 1 0 0 0 3 57 50 115 
3 0 5 0 0 0 3 55 54 53 
10 0 3 0 0 0 1 56 
8 0 3 0 0 0 1 53 
5 0 2 0 0 0 1 59 
3 0 3 0 0 0 1 59 
6 0 3 0 0 0 1 59 
9 0 1 0 0 0 1 59 
6 0 3 0 0 0 1 59 
2 0 1 0 0 0 1 59 
0 0 0 0 0 0 1 72 
0 0 0 0 0 0 2 61 62 
2 0 0 0 1 0 4 70 68 66 64 
10 0 0 0 2 0 3 70 65 63 
9 0 0 0 2 0 3 69 68 67 
5 0 0 0 1 0 2 69 67 
5 0 0 0 3 0 3 68 67 152 
9 0 0 0 4 0 1 67 
1 0 0 0 2 0 1 71 
9 0 0 0 5 0 1 71 
7 0 0 0 3 0 1 71 
5 0 0 0 2 0 1 71 
0 0 0 0 0 0 1 72 
0 0 0 0 0 0 4 73 85 97 109 
0 0 0 0 0 0 3 74 76 83 
2 0 1 0 0 0 5 82 81 80 77 75 
10 0 3 0 0 0 2 79 78 
6 0 5 0 0 0 1 77 
7 0 2 0 0 0 1 84 
9 0 3 0 0 0 1 84 
6 0 5 0 0 0 1 84 
2 0 1 0 0 0 1 84 
6 0 2 0 0 0 2 84 143 
8 0 1 0 0 0 1 84 
5 0 2 0 0 0 1 84 
0 0 0 0 0 0 1 121 
0 0 0 0 0 0 4 86 87 88 90 
7 1 0 0 0 0 3 94 93 89 
5 3 0 0 0 0 3 95 94 91 
7 4 0 0 0 0 3 93 92 91 
7 1 0 0 0 0 3 92 91 110 
8 7 0 0 0 0 1 91 
9 1 0 0 0 0 1 96 
3 2 0 0 0 0 1 96 
6 3 0 0 0 0 1 96 
8 1 0 0 0 0 1 96 
8 2 0 0 0 0 1 96 
0 0 0 0 0 0 1 121 
0 0 0 0 0 0 3 98 99 100 
3 0 0 1 0 0 4 104 103 102 101 
9 0 0 2 0 0 3 105 103 102 
3 0 0 3 0 0 3 104 103 101 
3 0 0 2 0 0 2 107 106 
10 0 0 4 0 0 2 107 106 
3 0 0 1 0 0 1 106 
1 0 0 1 0 0 1 107 
3 0 0 5 0 0 1 106 
1 0 0 3 0 0 1 108 
3 0 0 3 0 0 1 108 
0 0 0 0 0 0 1 121 
0 0 0 0 0 0 4 110 111 112 116 
5 1 0 0 0 0 3 115 114 113 
4 2 0 0 0 0 3 117 114 113 
7 1 0 0 0 0 3 118 117 113 
10 4 0 0 0 0 1 119 
10 5 0 0 0 0 1 118 
3 3 0 0 0 0 1 117 
2 1 0 0 0 0 1 117 
7 5 0 0 0 0 1 120 
10 1 0 0 0 0 1 120 
10 2 0 0 0 0 1 120 
0 0 0 0 0 0 1 121 
0 0 0 0 0 0 5 122 134 146 158 170 
0 0 0 0 0 0 5 123 124 125 126 127 
4 0 0 1 0 0 2 129 128 
5 0 0 1 0 0 2 129 128 
4 0 0 3 0 0 2 129 128 
9 0 0 4 0 0 2 129 128 
1 0 0 3 0 0 2 129 128 
2 0 0 5 0 0 3 132 131 130 
8 0 0 1 0 0 3 132 131 130 
7 0 0 2 0 0 1 133 
10 0 0 2 0 0 1 133 
6 0 0 3 0 0 1 133 
0 0 0 0 0 0 1 182 
0 0 0 0 0 0 3 135 136 138 
3 0 1 0 0 0 3 144 139 137 
8 0 2 0 0 0 3 143 141 140 
7 0 5 0 0 0 2 141 140 
10 0 2 0 0 0 2 142 140 
3 0 2 0 0 0 1 140 
5 0 4 0 0 0 1 145 
7 0 3 0 0 0 1 145 
3 0 1 0 0 0 1 145 
7 0 3 0 0 0 1 145 
4 0 2 0 0 0 1 145 
0 0 0 0 0 0 1 182 
0 0 0 0 0 0 2 147 148 
5 0 0 0 1 0 2 154 149 
2 0 0 0 1 0 2 155 150 
2 0 0 0 2 0 5 156 155 153 152 151 
3 0 0 0 3 0 4 154 153 152 151 
5 0 0 0 1 0 1 157 
7 0 0 0 3 0 1 157 
6 0 0 0 4 0 1 157 
3 0 0 0 7 0 1 157 
9 0 0 0 2 0 1 157 
4 0 0 0 1 0 1 157 
0 0 0 0 0 0 1 182 
0 0 0 0 0 0 3 159 160 161 
6 0 0 0 0 1 4 168 167 163 162 
1 0 0 0 0 4 4 168 167 163 162 
9 0 0 0 0 2 2 163 162 
10 0 0 0 0 3 3 166 165 164 
6 0 0 0 0 4 1 164 
10 0 0 0 0 2 1 169 
8 0 0 0 0 3 1 169 
5 0 0 0 0 2 1 169 
3 0 0 0 0 3 1 169 
7 0 0 0 0 1 1 169 
0 0 0 0 0 0 1 182 
0 0 0 0 0 0 4 171 172 173 175 
3 0 0 1 0 0 4 180 179 177 174 
5 0 0 1 0 0 3 179 178 174 
6 0 0 3 0 0 2 178 176 
9 0 0 3 0 0 1 176 
5 0 0 3 0 0 1 177 
1 0 0 3 0 0 1 181 
5 0 0 3 0 0 1 181 
5 0 0 2 0 0 1 181 
9 0 0 3 0 0 1 181 
3 0 0 3 0 0 1 181 
0 0 0 0 0 0 1 182 
0 0 0 0 0 0 0 
